\ Model Cl_30_Ins_1.lp
\ LP format - for model browsing. Use MPS format to capture full model detail.
Maximize
 
Subject To
 obj1: y[0] = 0
 obj2: y[1] = 0
 obj1_Exp: - y[0] + 91 x[0] + 89 x[1] + 87 x[2] + 87 x[3] + 85 x[4]
   + 83 x[5] + 78 x[6] + 76 x[7] + 73 x[8] + 71 x[9] + 70 x[10] + 56 x[11]
   + 47 x[12] + 47 x[13] + 46 x[14] + 41 x[15] + 39 x[16] + 31 x[17]
   + 30 x[18] + 29 x[19] + 27 x[20] + 25 x[21] + 24 x[22] + 23 x[23]
   + 16 x[24] + 13 x[25] + 9 x[26] + 7 x[27] + 4 x[28] + x[29] = 0
 obj2_Exp: - y[1] + 25 x[0] + 8 x[1] + 84 x[2] + 93 x[3] + 94 x[4]
   + 80 x[5] + 36 x[6] + 31 x[7] + 37 x[8] + 36 x[9] + 46 x[10] + 42 x[11]
   + 5 x[12] + 45 x[13] + 21 x[14] + 47 x[15] + 8 x[16] + 96 x[17]
   + 68 x[18] + 94 x[19] + 21 x[20] + 79 x[21] + 7 x[22] + 88 x[23]
   + 11 x[24] + 29 x[25] + 91 x[26] + 64 x[27] + 69 x[28] + 60 x[29] = 0
 Budget: 101 x[0] + 99 x[1] + 97 x[2] + 97 x[3] + 95 x[4] + 93 x[5]
   + 88 x[6] + 86 x[7] + 83 x[8] + 81 x[9] + 80 x[10] + 66 x[11] + 57 x[12]
   + 57 x[13] + 56 x[14] + 51 x[15] + 49 x[16] + 41 x[17] + 40 x[18]
   + 39 x[19] + 37 x[20] + 35 x[21] + 34 x[22] + 33 x[23] + 26 x[24]
   + 23 x[25] + 19 x[26] + 17 x[27] + 14 x[28] + 11 x[29] <= 473
Bounds
Binaries
 x[0] x[1] x[2] x[3] x[4] x[5] x[6] x[7] x[8] x[9] x[10] x[11] x[12] x[13]
 x[14] x[15] x[16] x[17] x[18] x[19] x[20] x[21] x[22] x[23] x[24] x[25]
 x[26] x[27] x[28] x[29]
Generals
 y[0] y[1]
End
